%mem=15GB     
%nproc=12
#P TEST b3lyp/6-311G** EmpiricalDispersion=GD3 counterpoise=2

 tetracene t1    variant:R3_t    other parameter: cif

0 1 0 1 0 1
X
X  1 1.0
X  1 30.0 2  90.0
X  3 30.0 1  90.0 2   -90.0
C  1   R1  2  90.0 3   -90.0  0 1
C  5   R2  1    A1 2   -90.0  0 1
C  6   R3  5    A2 1     0.0  0 1
C  7   R4  6    A3 5   180.0  0 1
C  8   R5  7    A4 6   180.0  0 1
C  1   R1  2  90.0 5   180.0  0 1
C  10  R2  1    A1 2    90.0  0 1
C  11  R3  10   A2 1     0.0  0 1
C  12  R4  11   A3 10  180.0  0 1
C  13  R5  12   A4 11  180.0  0 1
C   5  R2  1    A1 2    90.0  0 1
C  15  R3  5    A2 1     0.0  0 1
C  16  R4  15   A3 5   180.0  0 1
C  17  R5  16   A4 15  180.0  0 1
C  10  R2  1    A1 2   -90.0  0 1
C  19  R3  10    A2 1    0.0  0 1
C  20  R4  19   A3 10  180.0  0 1
C  21  R5  20   A4 19  180.0  0 1
H  6   R6  5    A5 1   180.0  0 1
H  8   R7  7    A6 6     0.0  0 1
H  9   R8  8    A7 7   180.0  0 1
H  11  R6  10   A5 1   180.0  0 1
H  13  R7  12   A6 11    0.0  0 1
H  14  R8  13   A7 12  180.0  0 1
H  15  R6  5    A5 1   180.0  0 1
H  17  R7  16   A6 15    0.0  0 1
H  18  R8  17   A7 16  180.0  0 1
H  19  R6  10   A5 1   180.0  0 1
H  21  R7  20   A6 19    0.0  0 1
H  22  R8  21   A7 20  180.0  0 1
X 4  30.0  3  90.0 1   90.0 
X 35 YY  4  90.0 3    0.0 
X 36 XX  35 90.0 4    0.0  
X 37 ZZ  36 90.0 35  -90.0 
X 38 1.0 37 90.0 36   0.0 
X 38 3.0 39   BB 36 -90.0 
X 38 1.0 40 90.0 37  180.0 
X 38 1.0 40 90.0 41  90.0
C	38	R1	40	90.0	37	-90.0	0	2
C	43	R2	38	A1	40	-90.0	0	2
C	44	R3	43	A2	38	0.0	0	2
C	45	R4	44	A3	43	180.0	0	2
C	46	R5	45	A4	44	180.0	0	2
C	38	R1	40	90.0	43	180.0	0	2
C	48	R2	38	A1	40	90.0	0	2
C	49	R3	48	A2	38	0.0	0	2
C	50	R4	49	A3	48	180.0	0	2
C	51	R5	50	A4	49	180.0	0	2
C	43	R2	38	A1	40	90.0	0	2
C	53	R3	43	A2	38	0.0	0	2
C	54	R4	53	A3	43	180.0	0	2
C	55	R5	54	A4	53	180.0	0	2
C	48	R2	38	A1	40	-90.0	0	2
C	57	R3	48	A2	38	0.0	0	2
C	58	R4	57	A3	48	180.0	0	2
C	59	R5	58	A4	57	180.0	0	2
H	44	R6	43	A5	38	180.0	0	2
H	46	R7	45	A6	44	0.0	0	2
H	47	R8	46	A7	45	180.0	0	2
H	49	R6	48	A5	38	180.0	0	2
H	51	R7	50	A6	49	0.0	0	2
H	52	R8	51	A7	50	180.0	0	2
H	53	R6	43	A5	38	180.0	0	2
H	55	R7	54	A6	53	0.0	0	2
H	56	R8	55	A7	54	180.0	0	2
H	57	R6	48	A5	38	180.0	0	2
H	59	R7	58	A6	57	0.0	0	2
H	60	R8	59	A7	58	180.0	0	2

XX      25.5
YY      31.2
ZZ      30.0
BB      50.0

R1 0.7265024
R2 1.40812249
R3 1.39677043
R4 1.42863995
R5 1.37302255
R6 1.09115239
R7 1.08927335
R8 1.08767515
A1 118.98120156
A2 121.64545666
A3 121.96067385
A4 120.8491327
A5 119.07279081
A6 118.70635481
A7 119.94327524


