%mem=15GB     
%nproc=20
#P TEST b3lyp/6-311G** EmpiricalDispersion=GD3 counterpoise=2

b3lyp-d3/6-311G** pentacene 293K cif t1

0 1 0 1 0 1
X
X  1 1.0
X  1 1.0 2  90.0
X  1 2.0 2   AA3 3   -90.0
C  1  R1  2  90.0 3   -90.0  0 1
C  5  R2  1    A1 2   -90.0  0 1
C  6  R3  5    A2 1   180.0  0 1
C  7  R4  6    A3 5   180.0  0 1
C  1  R1  2  90.0 5   180.0  0 1
C  9  R2  1    A1 2    90.0  0 1
C 10  R3  9    A2 1   180.0  0 1
C 11  R4  10   A3 9  180.0  0 1
C  5  R2  1    A1 2    90.0  0 1
C 13  R3  5    A2 1   180.0  0 1
C 14  R4  13   A3 5   180.0  0 1
C 9   R2  1    A1 2   -90.0  0 1
C 16  R3  9   A2 1   180.0  0 1
C 17  R4  16   A3 9  180.0  0 1
H  1  R5  2  90.0 5     0.0  0 1
H  7  R6  6    A4 5     0.0  0 1
H  8  R7  7    A5 6   180.0  0 1
H  1  R5  2  90.0  9    0.0  0 1
H 11  R6  10   A4  9    0.0  0 1
H 12  R7  11   A5 10  180.0  0 1
H 14  R6  13   A4  5    0.0  0 1
H 15  R7  14   A5 13  180.0  0 1
H 17  R6  16   A4  9    0.0  0 1
H 18  R7  17   A5 16  180.0  0 1
X 1 30.0   3  AA1  4    0.0
X 29 30.0 1  90.0 3  -AA2
X 30 30.0 29 90.0 1  90.0
X 31 aa   30 90.0 29 0.0
X 32 bb   31 90.0 30 0.0
X 33 cc   32 90.0 31 -90.0
X 34 1.0  33 AA1 32  AA4
X 34 2.0  35 90.0 33 0.0
X 34 1.0  36 AA5  35 -90.0
C	34	R1	37	90.0	35	-90.0	0	2
C	38	R2	34	A1	37	-90.0	0	2
C	39	R3	38	A2	34	180.0	0	2
C	40	R4	39	A3	38	180.0	0	2
C	34	R1	37	90.0	38	180.0	0	2
C	42	R2	34	A1	37	90.0	0	2
C	43	R3	42	A2	34	180.0	0	2
C	44	R4	43	A3	42	180.0	0	2
C	38	R2	34	A1	37	90.0	0	2
C	46	R3	38	A2	34	180.0	0	2
C	47	R4	46	A3	38	180.0	0	2
C	42	R2	34	A1	37	-90.0	0	2
C	49	R3	42	A2	34	180.0	0	2
C	50	R4	49	A3	42	180.0	0	2
H	34	R5	37	90.0	38	0.0	0	2
H	40	R6	39	A4	38	0.0	0	2
H	41	R7	40	A5	39	180.0	0	2
H	34	R5	37	90.0	42	0.0	0	2
H	44	R6	43	A4	42	0.0	0	2
H	45	R7	44	A5	43	180.0	0	2
H	47	R6	46	A4	38	0.0	0	2
H	48	R7	47	A5	46	180.0	0	2
H	50	R6	49	A4	42	0.0	0	2
H	51	R7	50	A5	49	180.0	0	2

AA1     30.0
AA2     -14.0
AA3     30.0
AA4     76.0
AA5     30.0
aa 26.0
bb 26.0
cc 30.0

R1 1.40568609
R2 1.40128744
R3 1.42623891
R4 1.37464096
R5 2.49675272
R6 1.08923243
R7 1.08766771
A1 60.78092161
A2 122.03624705
A3 120.80888744
A4 118.7549842
A5 119.95201463



