%mem=15GB     
%nproc=20
#P TEST b3lyp/6-311G** EmpiricalDispersion=GD3 counterpoise=2

anthracene

0 1 0 1 0 1
X
X  1 1.0
X  1 10.0 2  90.0
X  3 30.0 1  90.0 2   -90.0
C  1  R1  2  90.0 3   -90.0  0 1
C  5  R2  1    A1 2   -90.0  0 1
C  6  R3  5    A2 1   180.0  0 1
C  7  R4  6    A3 5   180.0  0 1
C  1  R1  2  90.0 5   180.0  0 1
C  9  R2  1    A1 2    90.0  0 1
C 10  R3  9    A2 1   180.0  0 1
C 11  R4  10   A3 9  180.0  0 1
C  5  R2  1    A1 2    90.0  0 1
C 13  R3  5    A2 1   180.0  0 1
C 14  R4  13   A3 5   180.0  0 1
C 9   R2  1    A1 2   -90.0  0 1
C 16  R3  9   A2 1   180.0  0 1
C 17  R4  16   A3 9  180.0  0 1
H  1  R5  2  90.0 5     0.0  0 1
H  7  R6  6    A4 5     0.0  0 1
H  8  R7  7    A5 6   180.0  0 1
H  1  R5  2  90.0  9    0.0  0 1
H 11  R6  10   A4  9    0.0  0 1
H 12  R7  11   A5 10  180.0  0 1
H 14  R6  13   A4  5    0.0  0 1
H 15  R7  14   A5 13  180.0  0 1
H 17  R6  16   A4  9    0.0  0 1
H 18  R7  17   A5 16  180.0  0 1
X 4  30.0  3  90.0 1   90.0 
X 29 YY  4  90.0 3    0.0 
X 30 XX  29 90.0 4    0.0  
X 31 ZZ  30 90.0 29  -90.0 
X 32 1.0 31 90.0 30   0.0 
X 32 3.0 33   BB 30 -90.0
X 32 1.0 34 90.0 31  180.0 
X 32 1.0 34 90.0 35  90.0
C	32	R1	34	90.0	31	-90.0	0	2
C	37	R2	32	A1	34	-90.0	0	2
C	38	R3	37	A2	32	180.0	0	2
C	39	R4	38	A3	37	180.0	0	2
C	32	R1	34	90.0	37	180.0	0	2
C	41	R2	32	A1	34	90.0	0	2
C	42	R3	41	A2	32	180.0	0	2
C	43	R4	42	A3	41	180.0	0	2
C	37	R2	32	A1	34	90.0	0	2
C	45	R3	37	A2	32	180.0	0	2
C	46	R4	45	A3	37	180.0	0	2
C	41	R2	32	A1	34	-90.0	0	2
C	48	R3	41	A2	32	180.0	0	2
C	49	R4	48	A3	41	180.0	0	2
H	32	R5	34	90.0	37	0.0	0	2
H	39	R6	38	A4	37	0.0	0	2
H	40	R7	39	A5	38	180.0	0	2
H	32	R5	34	90.0	41	0.0	0	2
H	43	R6	42	A4	41	0.0	0	2
H	44	R7	43	A5	42	180.0	0	2
H	46	R6	45	A4	37	0.0	0	2
H	47	R7	46	A5	45	180.0	0	2
H	49	R6	48	A4	41	0.0	0	2
H	50	R7	49	A5	48	180.0	0	2

XX      25.5
YY      31.2
ZZ      10.0
BB      50.0

R1 1.40568609
R2 1.40128744
R3 1.42623891
R4 1.37464096
R5 2.49675272
R6 1.08923243
R7 1.08766771
A1 60.78092161
A2 122.03624705
A3 120.80888744
A4 118.7549842
A5 119.95201463



